; Benchmark for LTL-sketching problem
(set-logic QF_UF)
(set-info :status unknown)
(declare-fun z_0_0 () Bool)
(declare-fun z_0_2 () Bool)
(declare-fun z_0_9 () Bool)
(declare-fun z_0_11 () Bool)
(declare-fun z_0_16 () Bool)
(declare-fun z_0_17 () Bool)
(declare-fun z_0_18 () Bool)
(declare-fun z_0_19 () Bool)
(declare-fun z_0_24 () Bool)
(declare-fun z_0_27 () Bool)
(declare-fun z_0_28 () Bool)
(declare-fun z_0_32 () Bool)
(declare-fun z_0_35 () Bool)
(declare-fun z_0_38 () Bool)
(declare-fun z_0_40 () Bool)
(declare-fun z_0_42 () Bool)
(declare-fun z_0_50 () Bool)
(declare-fun z_0_51 () Bool)
(declare-fun z_0_52 () Bool)
(declare-fun z_0_56 () Bool)
(declare-fun z_0_58 () Bool)
(declare-fun z_0_61 () Bool)
(declare-fun z_2_1 () Bool)
(declare-fun z_2_0 () Bool)
(declare-fun z_0_1 () Bool)
(declare-fun z_2_8 () Bool)
(declare-fun z_2_7 () Bool)
(declare-fun z_2_6 () Bool)
(declare-fun z_2_5 () Bool)
(declare-fun z_2_4 () Bool)
(declare-fun z_2_3 () Bool)
(declare-fun z_2_2 () Bool)
(declare-fun z_0_3 () Bool)
(declare-fun z_0_4 () Bool)
(declare-fun z_0_5 () Bool)
(declare-fun z_0_6 () Bool)
(declare-fun z_0_7 () Bool)
(declare-fun z_0_8 () Bool)
(declare-fun z_2_15 () Bool)
(declare-fun z_2_14 () Bool)
(declare-fun z_2_13 () Bool)
(declare-fun z_2_12 () Bool)
(declare-fun z_2_11 () Bool)
(declare-fun z_2_10 () Bool)
(declare-fun z_2_9 () Bool)
(declare-fun z_0_10 () Bool)
(declare-fun z_0_12 () Bool)
(declare-fun z_0_13 () Bool)
(declare-fun z_0_14 () Bool)
(declare-fun z_0_15 () Bool)
(declare-fun z_2_18 () Bool)
(declare-fun z_2_17 () Bool)
(declare-fun z_2_16 () Bool)
(declare-fun z_2_23 () Bool)
(declare-fun z_2_22 () Bool)
(declare-fun z_2_21 () Bool)
(declare-fun z_2_20 () Bool)
(declare-fun z_2_19 () Bool)
(declare-fun z_0_20 () Bool)
(declare-fun z_0_21 () Bool)
(declare-fun z_0_22 () Bool)
(declare-fun z_0_23 () Bool)
(declare-fun z_2_27 () Bool)
(declare-fun z_2_26 () Bool)
(declare-fun z_2_25 () Bool)
(declare-fun z_2_24 () Bool)
(declare-fun z_0_25 () Bool)
(declare-fun z_0_26 () Bool)
(declare-fun z_2_31 () Bool)
(declare-fun z_2_30 () Bool)
(declare-fun z_2_29 () Bool)
(declare-fun z_2_28 () Bool)
(declare-fun z_0_29 () Bool)
(declare-fun z_0_30 () Bool)
(declare-fun z_0_31 () Bool)
(declare-fun z_2_34 () Bool)
(declare-fun z_2_33 () Bool)
(declare-fun z_2_32 () Bool)
(declare-fun z_0_33 () Bool)
(declare-fun z_0_34 () Bool)
(declare-fun z_2_37 () Bool)
(declare-fun z_2_36 () Bool)
(declare-fun z_2_35 () Bool)
(declare-fun z_0_36 () Bool)
(declare-fun z_0_37 () Bool)
(declare-fun z_2_39 () Bool)
(declare-fun z_2_38 () Bool)
(declare-fun z_0_39 () Bool)
(declare-fun z_2_41 () Bool)
(declare-fun z_2_40 () Bool)
(declare-fun z_0_41 () Bool)
(declare-fun z_2_49 () Bool)
(declare-fun z_2_48 () Bool)
(declare-fun z_2_47 () Bool)
(declare-fun z_2_46 () Bool)
(declare-fun z_2_45 () Bool)
(declare-fun z_2_44 () Bool)
(declare-fun z_2_43 () Bool)
(declare-fun z_2_42 () Bool)
(declare-fun z_0_43 () Bool)
(declare-fun z_0_44 () Bool)
(declare-fun z_0_45 () Bool)
(declare-fun z_0_46 () Bool)
(declare-fun z_0_47 () Bool)
(declare-fun z_0_48 () Bool)
(declare-fun z_0_49 () Bool)
(declare-fun z_2_55 () Bool)
(declare-fun z_2_54 () Bool)
(declare-fun z_2_53 () Bool)
(declare-fun z_2_52 () Bool)
(declare-fun z_2_51 () Bool)
(declare-fun z_2_50 () Bool)
(declare-fun z_0_53 () Bool)
(declare-fun z_0_54 () Bool)
(declare-fun z_0_55 () Bool)
(declare-fun z_2_57 () Bool)
(declare-fun z_2_56 () Bool)
(declare-fun z_0_57 () Bool)
(declare-fun z_2_60 () Bool)
(declare-fun z_2_59 () Bool)
(declare-fun z_2_58 () Bool)
(declare-fun z_0_59 () Bool)
(declare-fun z_0_60 () Bool)
(declare-fun z_2_62 () Bool)
(declare-fun z_2_61 () Bool)
(declare-fun z_0_62 () Bool)
(declare-fun x_2_p () Bool)
(declare-fun x_2_-> () Bool)
(declare-fun x_2_U () Bool)
(declare-fun x_2_v () Bool)
(declare-fun x_2_& () Bool)
(declare-fun x_2_X () Bool)
(declare-fun x_2_! () Bool)
(declare-fun x_2_F () Bool)
(declare-fun x_2_G () Bool)
(assert
 z_0_0)
(assert
 z_0_2)
(assert
 z_0_9)
(assert
 z_0_11)
(assert
 z_0_16)
(assert
 z_0_17)
(assert
 (not z_0_18))
(assert
 z_0_19)
(assert
 z_0_24)
(assert
 z_0_27)
(assert
 z_0_28)
(assert
 z_0_32)
(assert
 z_0_35)
(assert
 z_0_38)
(assert
 z_0_40)
(assert
 z_0_42)
(assert
 z_0_50)
(assert
 z_0_51)
(assert
 z_0_52)
(assert
 z_0_56)
(assert
 z_0_58)
(assert
 z_0_61)
(assert
 (let (($x949 (or z_2_0 z_2_1)))
 (= z_0_0 $x949)))
(assert
 (= z_0_1 (or z_2_1 z_2_0)))
(assert
 (= z_0_2 (or z_2_2 z_2_3 z_2_4 z_2_5 z_2_6 z_2_7 z_2_8)))
(assert
 (= z_0_3 (or z_2_3 z_2_4 z_2_5 z_2_6 z_2_7 z_2_8)))
(assert
 (= z_0_4 (or z_2_4 z_2_5 z_2_6 z_2_7 z_2_8)))
(assert
 (let (($x967 (or z_2_5 z_2_6 z_2_7 z_2_8)))
 (= z_0_5 $x967)))
(assert
 (= z_0_6 (or z_2_6 z_2_7 z_2_8 z_2_5)))
(assert
 (= z_0_7 (or z_2_7 z_2_8 z_2_5 z_2_6)))
(assert
 (= z_0_8 (or z_2_8 z_2_5 z_2_6 z_2_7)))
(assert
 (= z_0_9 (or z_2_9 z_2_10 z_2_11 z_2_12 z_2_13 z_2_14 z_2_15)))
(assert
 (= z_0_10 (or z_2_10 z_2_11 z_2_12 z_2_13 z_2_14 z_2_15)))
(assert
 (= z_0_11 (or z_2_11 z_2_12 z_2_13 z_2_14 z_2_15)))
(assert
 (let (($x991 (or z_2_12 z_2_13 z_2_14 z_2_15)))
 (= z_0_12 $x991)))
(assert
 (= z_0_13 (or z_2_13 z_2_14 z_2_15 z_2_12)))
(assert
 (= z_0_14 (or z_2_14 z_2_15 z_2_12 z_2_13)))
(assert
 (= z_0_15 (or z_2_15 z_2_12 z_2_13 z_2_14)))
(assert
 (= z_0_16 (or z_2_16 z_2_17 z_2_18)))
(assert
 (= z_0_17 (or z_2_17 z_2_18)))
(assert
 (= z_0_18 (or z_2_18)))
(assert
 (= z_0_19 (or z_2_19 z_2_20 z_2_21 z_2_22 z_2_23)))
(assert
 (= z_0_20 (or z_2_20 z_2_21 z_2_22 z_2_23)))
(assert
 (let (($x1021 (or z_2_21 z_2_22 z_2_23)))
 (= z_0_21 $x1021)))
(assert
 (= z_0_22 (or z_2_22 z_2_23 z_2_21)))
(assert
 (= z_0_23 (or z_2_23 z_2_21 z_2_22)))
(assert
 (= z_0_24 (or z_2_24 z_2_25 z_2_26 z_2_27 z_2_0 z_2_1)))
(assert
 (= z_0_25 (or z_2_25 z_2_26 z_2_27 z_2_0 z_2_1)))
(assert
 (= z_0_26 (or z_2_26 z_2_27 z_2_0 z_2_1)))
(assert
 (= z_0_27 (or z_2_27 z_2_0 z_2_1)))
(assert
 (= z_0_28 (or z_2_28 z_2_29 z_2_30 z_2_31 z_2_23 z_2_21 z_2_22)))
(assert
 (= z_0_29 (or z_2_29 z_2_30 z_2_31 z_2_23 z_2_21 z_2_22)))
(assert
 (= z_0_30 (or z_2_30 z_2_31 z_2_23 z_2_21 z_2_22)))
(assert
 (= z_0_31 (or z_2_31 z_2_23 z_2_21 z_2_22)))
(assert
 (= z_0_32 (or z_2_32 z_2_33 z_2_34 z_2_1 z_2_0)))
(assert
 (= z_0_33 (or z_2_33 z_2_34 z_2_1 z_2_0)))
(assert
 (= z_0_34 (or z_2_34 z_2_1 z_2_0)))
(assert
 (= z_0_35 (or z_2_35 z_2_36 z_2_37)))
(assert
 (= z_0_36 (or z_2_36 z_2_37)))
(assert
 (= z_0_37 (or z_2_37)))
(assert
 (= z_0_38 (or z_2_38 z_2_39 z_2_15 z_2_12 z_2_13 z_2_14)))
(assert
 (= z_0_39 (or z_2_39 z_2_15 z_2_12 z_2_13 z_2_14)))
(assert
 (= z_0_40 (or z_2_40 z_2_41 z_2_39 z_2_15 z_2_12 z_2_13 z_2_14)))
(assert
 (= z_0_41 (or z_2_41 z_2_39 z_2_15 z_2_12 z_2_13 z_2_14)))
(assert
 (let (($x1122 (or z_2_42 z_2_43 z_2_44 z_2_45 z_2_46 z_2_47 z_2_48 z_2_49)))
 (= z_0_42 $x1122)))
(assert
 (= z_0_43 (or z_2_43 z_2_44 z_2_45 z_2_46 z_2_47 z_2_48 z_2_49)))
(assert
 (= z_0_44 (or z_2_44 z_2_45 z_2_46 z_2_47 z_2_48 z_2_49)))
(assert
 (= z_0_45 (or z_2_45 z_2_46 z_2_47 z_2_48 z_2_49)))
(assert
 (let (($x1130 (or z_2_46 z_2_47 z_2_48 z_2_49)))
 (= z_0_46 $x1130)))
(assert
 (= z_0_47 (or z_2_47 z_2_48 z_2_49 z_2_46)))
(assert
 (= z_0_48 (or z_2_48 z_2_49 z_2_46 z_2_47)))
(assert
 (= z_0_49 (or z_2_49 z_2_46 z_2_47 z_2_48)))
(assert
 (= z_0_50 (or z_2_50 z_2_51 z_2_52 z_2_53 z_2_54 z_2_55)))
(assert
 (let (($x1149 (or z_2_51 z_2_52 z_2_53 z_2_54 z_2_55)))
 (= z_0_51 $x1149)))
(assert
 (= z_0_52 (or z_2_52 z_2_53 z_2_54 z_2_55 z_2_51)))
(assert
 (= z_0_53 (or z_2_53 z_2_54 z_2_55 z_2_51 z_2_52)))
(assert
 (= z_0_54 (or z_2_54 z_2_55 z_2_51 z_2_52 z_2_53)))
(assert
 (= z_0_55 (or z_2_55 z_2_51 z_2_52 z_2_53 z_2_54)))
(assert
 (= z_0_56 (or z_2_56 z_2_57 z_2_4 z_2_5 z_2_6 z_2_7 z_2_8)))
(assert
 (= z_0_57 (or z_2_57 z_2_4 z_2_5 z_2_6 z_2_7 z_2_8)))
(assert
 (= z_0_58 (or z_2_58 z_2_59 z_2_60 z_2_17 z_2_18)))
(assert
 (= z_0_59 (or z_2_59 z_2_60 z_2_17 z_2_18)))
(assert
 (= z_0_60 (or z_2_60 z_2_17 z_2_18)))
(assert
 (= z_0_61 (or z_2_61 z_2_62 z_2_52 z_2_53 z_2_54 z_2_55 z_2_51)))
(assert
 (= z_0_62 (or z_2_62 z_2_52 z_2_53 z_2_54 z_2_55 z_2_51)))
(assert
 (and true true))
(assert
 (=> x_2_p z_2_0))
(assert
 (let (($x1221 (not z_2_1)))
 (=> x_2_p $x1221)))
(assert
 (let (($x1224 (not z_2_2)))
 (=> x_2_p $x1224)))
(assert
 (let (($x1227 (not z_2_3)))
 (=> x_2_p $x1227)))
(assert
 (=> x_2_p z_2_4))
(assert
 (let (($x1232 (not z_2_5)))
 (=> x_2_p $x1232)))
(assert
 (=> x_2_p z_2_6))
(assert
 (let (($x1237 (not z_2_7)))
 (=> x_2_p $x1237)))
(assert
 (let (($x1240 (not z_2_8)))
 (=> x_2_p $x1240)))
(assert
 (=> x_2_p z_2_9))
(assert
 (=> x_2_p z_2_10))
(assert
 (let (($x1247 (not z_2_11)))
 (=> x_2_p $x1247)))
(assert
 (=> x_2_p z_2_12))
(assert
 (=> x_2_p z_2_13))
(assert
 (let (($x1254 (not z_2_14)))
 (=> x_2_p $x1254)))
(assert
 (=> x_2_p z_2_15))
(assert
 (=> x_2_p z_2_16))
(assert
 (=> x_2_p z_2_17))
(assert
 (let (($x1263 (not z_2_18)))
 (=> x_2_p $x1263)))
(assert
 (=> x_2_p z_2_19))
(assert
 (let (($x1268 (not z_2_20)))
 (=> x_2_p $x1268)))
(assert
 (let (($x1271 (not z_2_21)))
 (=> x_2_p $x1271)))
(assert
 (let (($x1274 (not z_2_22)))
 (=> x_2_p $x1274)))
(assert
 (=> x_2_p z_2_23))
(assert
 (let (($x1279 (not z_2_24)))
 (=> x_2_p $x1279)))
(assert
 (let (($x1282 (not z_2_25)))
 (=> x_2_p $x1282)))
(assert
 (let (($x1285 (not z_2_26)))
 (=> x_2_p $x1285)))
(assert
 (=> x_2_p z_2_27))
(assert
 (let (($x1290 (not z_2_28)))
 (=> x_2_p $x1290)))
(assert
 (let (($x1293 (not z_2_29)))
 (=> x_2_p $x1293)))
(assert
 (let (($x1296 (not z_2_30)))
 (=> x_2_p $x1296)))
(assert
 (=> x_2_p z_2_31))
(assert
 (=> x_2_p z_2_32))
(assert
 (let (($x1303 (not z_2_33)))
 (=> x_2_p $x1303)))
(assert
 (let (($x1306 (not z_2_34)))
 (=> x_2_p $x1306)))
(assert
 (=> x_2_p z_2_35))
(assert
 (let (($x1311 (not z_2_36)))
 (=> x_2_p $x1311)))
(assert
 (=> x_2_p z_2_37))
(assert
 (=> x_2_p z_2_38))
(assert
 (=> x_2_p z_2_39))
(assert
 (=> x_2_p z_2_40))
(assert
 (let (($x1322 (not z_2_41)))
 (=> x_2_p $x1322)))
(assert
 (let (($x1325 (not z_2_42)))
 (=> x_2_p $x1325)))
(assert
 (let (($x1328 (not z_2_43)))
 (=> x_2_p $x1328)))
(assert
 (let (($x1331 (not z_2_44)))
 (=> x_2_p $x1331)))
(assert
 (=> x_2_p z_2_45))
(assert
 (=> x_2_p z_2_46))
(assert
 (=> x_2_p z_2_47))
(assert
 (let (($x1340 (not z_2_48)))
 (=> x_2_p $x1340)))
(assert
 (let (($x1343 (not z_2_49)))
 (=> x_2_p $x1343)))
(assert
 (=> x_2_p z_2_50))
(assert
 (=> x_2_p z_2_51))
(assert
 (let (($x1350 (not z_2_52)))
 (=> x_2_p $x1350)))
(assert
 (let (($x1353 (not z_2_53)))
 (=> x_2_p $x1353)))
(assert
 (=> x_2_p z_2_54))
(assert
 (=> x_2_p z_2_55))
(assert
 (=> x_2_p z_2_56))
(assert
 (=> x_2_p z_2_57))
(assert
 (=> x_2_p z_2_58))
(assert
 (let (($x1366 (not z_2_59)))
 (=> x_2_p $x1366)))
(assert
 (let (($x1369 (not z_2_60)))
 (=> x_2_p $x1369)))
(assert
 (=> x_2_p z_2_61))
(assert
 (let (($x1374 (not z_2_62)))
 (=> x_2_p $x1374)))
(assert
 (or x_2_p))
(assert
 (let (($x1216 (not x_2_->)))
 (let (($x1214 (not x_2_U)))
 (let (($x1212 (not x_2_v)))
 (let (($x1210 (not x_2_&)))
 (let (($x1208 (not x_2_X)))
 (let (($x1206 (not x_2_!)))
 (let (($x1204 (not x_2_F)))
 (let (($x1202 (not x_2_G)))
 (and $x1202 $x1204 $x1206 $x1208 $x1210 $x1212 $x1214 $x1216))))))))))
(check-sat)

